presolving:
(round 1, fast)       101 del vars, 0 del conss, 0 add conss, 0 chg bounds, 0 chg sides, 0 chg coeffs, 0 upgd conss, 0 impls, 200 clqs
(round 2, exhaustive) 101 del vars, 0 del conss, 0 add conss, 0 chg bounds, 0 chg sides, 0 chg coeffs, 200 upgd conss, 0 impls, 200 clqs
   (1.0s) probing: 51/9900 (0.5%) - 0 fixings, 0 aggregations, 0 implications, 0 bound changes
   (1.0s) probing aborted: 50/50 successive totally useless probings
   Deactivated symmetry handling methods, since SCIP was built without symmetry detector (SYM=none).
presolving (3 rounds: 3 fast, 2 medium, 2 exhaustive):
 101 deleted vars, 0 deleted constraints, 0 added constraints, 0 tightened bounds, 0 added holes, 0 changed sides, 0 changed coefficients
 0 implications, 200 cliques
presolved problem has 9999 variables (9900 bin, 0 int, 0 impl, 99 cont) and 9902 constraints
    200 constraints of type <setppc>
   9702 constraints of type <linear>
Presolving Time: 1.00

 time | node  | left  |LP iter|LP it/n|mem/heur|mdpt |vars |cons |rows |cuts |sepa|confs|strbr|  dualbound   | primalbound  |  gap   | compl. 
p 1.0s|     1 |     0 |    63 |     - | vbounds|   0 |9999 |9909 |9902 |   0 |  0 |   6 |   0 | 0.000000e+00 | 5.065391e+04 |    Inf | unknown
  1.0s|     1 |     0 |   347 |     - |   126M |   0 |9999 |9909 |9902 |   0 |  0 |   6 |   0 | 6.578068e+03 | 5.065391e+04 | 670.04%| unknown
  1.0s|     1 |     0 |   439 |     - |   129M |   0 |9999 |9909 |9980 |  78 |  1 |   6 |   0 | 7.007892e+03 | 5.065391e+04 | 622.81%| unknown
  2.0s|     1 |     0 |   499 |     - |   132M |   0 |9999 |9909 |  10k| 130 |  2 |   6 |   0 | 7.075762e+03 | 5.065391e+04 | 615.88%| unknown
  2.0s|     1 |     0 |   546 |     - |   134M |   0 |9999 |9909 |  10k| 154 |  3 |   6 |   0 | 7.296516e+03 | 5.065391e+04 | 594.22%| unknown
  2.0s|     1 |     0 |   588 |     - |   135M |   0 |9999 |9909 |  10k| 175 |  4 |   6 |   0 | 7.306702e+03 | 5.065391e+04 | 593.25%| unknown
  2.0s|     1 |     0 |   639 |     - |   137M |   0 |9999 |9909 |  10k| 189 |  5 |   6 |   0 | 7.320631e+03 | 5.065391e+04 | 591.93%| unknown
  2.0s|     1 |     0 |   663 |     - |   139M |   0 |9999 |9909 |  10k| 203 |  6 |   6 |   0 | 7.382401e+03 | 5.065391e+04 | 586.14%| unknown
  2.0s|     1 |     0 |   682 |     - |   140M |   0 |9999 |9909 |  10k| 212 |  7 |   6 |   0 | 7.382720e+03 | 5.065391e+04 | 586.11%| unknown
  3.0s|     1 |     0 |   689 |     - |   144M |   0 |9999 |9909 |  10k| 218 |  8 |   6 |   0 | 7.382720e+03 | 5.065391e+04 | 586.11%| unknown
  3.0s|     1 |     0 |   707 |     - |   145M |   0 |9999 |9909 |  10k| 221 |  9 |   6 |   0 | 7.393134e+03 | 5.065391e+04 | 585.15%| unknown
  3.0s|     1 |     0 |   784 |     - |   147M |   0 |9999 |9909 |  10k| 236 | 10 |   6 |   0 | 7.431057e+03 | 5.065391e+04 | 581.65%| unknown
  3.0s|     1 |     0 |   816 |     - |   148M |   0 |9999 |9909 |  10k| 253 | 11 |   6 |   0 | 7.454001e+03 | 5.065391e+04 | 579.55%| unknown
  3.0s|     1 |     0 |   841 |     - |   149M |   0 |9999 |9909 |  10k| 261 | 12 |   6 |   0 | 7.456732e+03 | 5.065391e+04 | 579.30%| unknown
  4.0s|     1 |     0 |   860 |     - |   150M |   0 |9999 |9909 |  10k| 272 | 13 |   6 |   0 | 7.458729e+03 | 5.065391e+04 | 579.12%| unknown
 time | node  | left  |LP iter|LP it/n|mem/heur|mdpt |vars |cons |rows |cuts |sepa|confs|strbr|  dualbound   | primalbound  |  gap   | compl. 
  4.0s|     1 |     0 |   877 |     - |   151M |   0 |9999 |9909 |  10k| 281 | 14 |   6 |   0 | 7.463443e+03 | 5.065391e+04 | 578.69%| unknown
  4.0s|     1 |     0 |   881 |     - |   152M |   0 |9999 |9909 |  10k| 285 | 15 |   6 |   0 | 7.463443e+03 | 5.065391e+04 | 578.69%| unknown
  4.0s|     1 |     0 |   914 |     - |   153M |   0 |9999 |9909 |  10k| 298 | 16 |   6 |   0 | 7.490747e+03 | 5.065391e+04 | 576.22%| unknown
  4.0s|     1 |     0 |   950 |     - |   154M |   0 |9999 |9909 |  10k| 309 | 17 |   6 |   0 | 7.500956e+03 | 5.065391e+04 | 575.30%| unknown
  5.0s|     1 |     0 |   973 |     - |   155M |   0 |9999 |9909 |  10k| 315 | 18 |   6 |   0 | 7.502863e+03 | 5.065391e+04 | 575.13%| unknown
  5.0s|     1 |     0 |   998 |     - |   156M |   0 |9999 |9909 |  10k| 323 | 19 |   6 |   0 | 7.506921e+03 | 5.065391e+04 | 574.76%| unknown
  5.0s|     1 |     0 |  1025 |     - |   156M |   0 |9999 |9909 |  10k| 334 | 20 |   6 |   0 | 7.509718e+03 | 5.065391e+04 | 574.51%| unknown
  5.0s|     1 |     0 |  1032 |     - |   156M |   0 |9999 |9909 |  10k| 340 | 21 |   6 |   0 | 7.509718e+03 | 5.065391e+04 | 574.51%| unknown
  5.0s|     1 |     0 |  1038 |     - |   156M |   0 |9999 |9909 |  10k| 344 | 22 |   6 |   0 | 7.509718e+03 | 5.065391e+04 | 574.51%| unknown
 17.0s|     1 |     2 |  6209 |     - |   158M |   0 |9999 |9915 |  10k| 344 | 24 |  12 |  34 | 7.519089e+03 | 5.065391e+04 | 573.67%| unknown
  294s|   100 |   101 | 12349 | 114.9 |   184M |  23 |9999 |9980 |  10k| 524 |  1 |  79 |1202 | 7.526907e+03 | 5.065391e+04 | 572.97%| unknown
  411s|   200 |   201 | 30054 | 146.1 |   204M |  24 |9999 |  10k|  10k| 704 |  1 | 123 |1639 | 7.526907e+03 | 5.065391e+04 | 572.97%| unknown
L 418s|   201 |   202 | 30080 | 145.5 |    rins|  24 |9999 |  10k|  10k| 704 |  1 | 123 |1644 | 7.526907e+03 | 2.943658e+04 | 291.08%| unknown
d 437s|   233 |   234 | 32097 | 134.1 |linesear|  24 |9999 |  10k|  10k|   0 |  2 | 129 |1714 | 7.526907e+03 | 1.038621e+04 |  37.99%| unknown
  466s|   300 |   301 | 36594 | 119.1 |   214M |  24 |9999 |  10k|  10k| 907 |  1 | 146 |1803 | 7.526907e+03 | 1.038621e+04 |  37.99%| unknown
 time | node  | left  |LP iter|LP it/n|mem/heur|mdpt |vars |cons |rows |cuts |sepa|confs|strbr|  dualbound   | primalbound  |  gap   | compl. 
d 478s|   333 |   331 | 39035 | 114.6 |veclendi|  27 |9999 |  10k|  10k|   0 |  1 | 181 |1828 | 7.526907e+03 | 8.703887e+03 |  15.64%| unknown
  507s|   400 |   394 | 43027 | 105.4 |   218M |  27 |9999 |  10k|  10k|1012 |  1 | 230 |1910 | 7.526907e+03 | 8.703887e+03 |  15.64%| unknown
  537s|   500 |   492 | 47463 |  93.2 |   221M |  29 |9999 |  10k|  10k|1120 |  1 | 294 |1998 | 7.527116e+03 | 8.703887e+03 |  15.63%| unknown
L 543s|   533 |   523 | 48862 |  90.0 |crossove|  29 |9999 |  10k|  10k|1146 |  1 | 346 |2008 | 7.527116e+03 | 8.622247e+03 |  14.55%| unknown
  559s|   600 |   588 | 50866 |  83.3 |   222M |  31 |9999 |  10k|  10k|1195 |  1 | 382 |2051 | 7.527116e+03 | 8.622247e+03 |  14.55%| unknown
  598s|   700 |   684 | 64163 |  90.4 |   225M |  36 |9999 |  10k|  10k|1243 |  1 | 459 |2154 | 7.527116e+03 | 8.622247e+03 |  14.55%| unknown

SCIP Status        : solving was interrupted [time limit reached]
Solving Time (sec) : 600.00
Solving Nodes      : 710
Primal Bound       : +8.62224742556021e+03 (5 solutions)
Dual Bound         : +7.52711551281330e+03
Gap                : 14.55 %
Trying to solve problem with MTZ Solver Method...
Starting Solver, time limit setted to 10 minutes
Route:  [[0, 59], [1, 88], [2, 25], [3, 31], [4, 60], [5, 93], [6, 39], [7, 70], [8, 77], [9, 32], [10, 4], [11, 13], [12, 66], [13, 84], [14, 86], [15, 56], [16, 53], [17, 0], [18, 55], [19, 73], [20, 48], [21, 40], [22, 1], [23, 24], [24, 42], [25, 8], [26, 9], [27, 36], [28, 34], [29, 79], [30, 87], [31, 11], [32, 2], [33, 6], [34, 43], [35, 10], [36, 18], [37, 71], [38, 95], [39, 41], [40, 33], [41, 23], [42, 54], [43, 99], [44, 15], [45, 72], [46, 98], [47, 29], [48, 12], [49, 45], [50, 89], [51, 44], [52, 78], [53, 37], [54, 38], [55, 69], [56, 46], [57, 75], [58, 94], [59, 68], [60, 21], [61, 17], [62, 14], [63, 35], [64, 47], [65, 30], [66, 96], [67, 82], [68, 7], [69, 16], [70, 67], [71, 49], [72, 91], [73, 3], [74, 20], [75, 58], [76, 92], [77, 19], [78, 5], [79, 80], [80, 90], [81, 74], [82, 50], [83, 22], [84, 81], [85, 62], [86, 61], [87, 83], [88, 57], [89, 64], [90, 63], [91, 26], [92, 27], [93, 97], [94, 76], [95, 28], [96, 85], [97, 65], [98, 52], [99, 51]]
An Otimal Solution was found, yay!
Objective value: 8622.2
Problem solved in 64730 iterations
Problem solved in 710 nodes
Final Route Configuration succesfully created at:
data/routes/rd100.csv
